(set-info :smt-lib-version 2.6)
(set-logic UFLIA)
(set-info :source |Benchmarks from the paper: "Extending Sledgehammer with SMT Solvers" by Jasmin Blanchette, Sascha Bohme, and Lawrence C. Paulson, CADE 2011.  Translated to SMT2 by Andrew Reynolds and Morgan Deters.|)
(set-info :category "industrial")
(set-info :status unknown)
(declare-sort S1 0)
(declare-sort S2 0)
(declare-sort S3 0)
(declare-sort S4 0)
(declare-sort S5 0)
(declare-sort S6 0)
(declare-sort S7 0)
(declare-sort S8 0)
(declare-sort S9 0)
(declare-sort S10 0)
(declare-sort S11 0)
(declare-sort S12 0)
(declare-sort S13 0)
(declare-sort S14 0)
(declare-sort S15 0)
(declare-sort S16 0)
(declare-sort S17 0)
(declare-sort S18 0)
(declare-sort S19 0)
(declare-sort S20 0)
(declare-sort S21 0)
(declare-sort S22 0)
(declare-sort S23 0)
(declare-sort S24 0)
(declare-sort S25 0)
(declare-sort S26 0)
(declare-sort S27 0)
(declare-sort S28 0)
(declare-sort S29 0)
(declare-sort S30 0)
(declare-sort S31 0)
(declare-sort S32 0)
(declare-sort S33 0)
(declare-sort S34 0)
(declare-sort S35 0)
(declare-sort S36 0)
(declare-sort S37 0)
(declare-sort S38 0)
(declare-sort S39 0)
(declare-sort S40 0)
(declare-sort S41 0)
(declare-sort S42 0)
(declare-fun f1 () S1)
(declare-fun f2 () S1)
(declare-fun f3 (S3 S2) S4)
(declare-fun f4 () S3)
(declare-fun f5 (S5 S6) S4)
(declare-fun f6 (S7 S8) S5)
(declare-fun f7 (S9 S6) S7)
(declare-fun f8 () S9)
(declare-fun f9 (S2) S6)
(declare-fun f10 (S10 S11) S8)
(declare-fun f11 () S10)
(declare-fun f12 (S2) S11)
(declare-fun f13 (S2) S6)
(declare-fun f14 () S3)
(declare-fun f15 (S12 S2) S8)
(declare-fun f16 () S12)
(declare-fun f17 (S13 S4) S1)
(declare-fun f18 (S13) S13)
(declare-fun f19 (S4 S13) S1)
(declare-fun f20 (S14 S2) S1)
(declare-fun f21 (S14) S14)
(declare-fun f22 (S2 S14) S1)
(declare-fun f23 (S16 S15) S3)
(declare-fun f24 (S17 S15) S16)
(declare-fun f25 () S17)
(declare-fun f26 (S15 S2) S6)
(declare-fun f27 () S17)
(declare-fun f28 (S18 S13) S13)
(declare-fun f29 (S13) S18)
(declare-fun f30 (S19 S14) S14)
(declare-fun f31 (S14) S19)
(declare-fun f32 (S4) S18)
(declare-fun f33 (S2) S19)
(declare-fun f34 (S4) S18)
(declare-fun f35 (S2) S19)
(declare-fun f36 (S21 S3) S3)
(declare-fun f37 (S22 S20) S21)
(declare-fun f38 () S22)
(declare-fun f39 (S20 S4) S4)
(declare-fun f40 (S24 S2) S2)
(declare-fun f41 (S25 S3) S24)
(declare-fun f42 (S26 S23) S25)
(declare-fun f43 () S26)
(declare-fun f44 (S23 S4) S2)
(declare-fun f45 (S27 S23) S20)
(declare-fun f46 (S28 S3) S27)
(declare-fun f47 () S28)
(declare-fun f48 (S29 S24) S3)
(declare-fun f49 (S30 S3) S29)
(declare-fun f50 () S30)
(declare-fun f51 (S31 S4) S20)
(declare-fun f52 () S31)
(declare-fun f53 (S32 S4) S3)
(declare-fun f54 () S32)
(declare-fun f55 (S33 S2) S23)
(declare-fun f56 () S33)
(declare-fun f57 (S34 S2) S24)
(declare-fun f58 () S34)
(declare-fun f59 () S20)
(declare-fun f60 () S24)
(declare-fun f61 () S13)
(declare-fun f62 () S14)
(declare-fun f63 (S13 S13) S1)
(declare-fun f64 () S13)
(declare-fun f65 (S4) S18)
(declare-fun f66 () S2)
(declare-fun f67 () S13)
(declare-fun f68 (S13) S18)
(declare-fun f69 (S35 S14) S13)
(declare-fun f70 (S3) S35)
(declare-fun f71 () S14)
(declare-fun f72 (S38 S37) S1)
(declare-fun f73 (S6 S36) S38)
(declare-fun f74 () S14)
(declare-fun f75 (S39 S13) S14)
(declare-fun f76 (S23) S39)
(declare-fun f77 (S2) S19)
(declare-fun f78 (S24) S19)
(declare-fun f79 (S20) S18)
(declare-fun f80 (S14) S19)
(declare-fun f81 (S40) S13)
(declare-fun f82 (S41 Int) S40)
(declare-fun f83 () S41)
(declare-fun f84 (S42 S40) Int)
(declare-fun f85 () S42)
(declare-fun f86 (S13) S13)
(declare-fun f87 (S14) S14)
(assert (not (= f1 f2)))
(assert (forall ((?v0 S2)) (= (f3 f4 ?v0) (f5 (f6 (f7 f8 (f9 ?v0)) (f10 f11 (f12 ?v0))) (f13 ?v0)))))
(assert (forall ((?v0 S2)) (= (f3 f14 ?v0) (f5 (f6 (f7 f8 (f9 ?v0)) (f15 f16 ?v0)) (f13 ?v0)))))
(assert (forall ((?v0 S13) (?v1 S4)) (= (= (f17 (f18 ?v0) ?v1) f1) (= (f19 ?v1 ?v0) f1))))
(assert (forall ((?v0 S14) (?v1 S2)) (= (= (f20 (f21 ?v0) ?v1) f1) (= (f22 ?v1 ?v0) f1))))
(assert (forall ((?v0 S15) (?v1 S15) (?v2 S2)) (= (f3 (f23 (f24 f25 ?v0) ?v1) ?v2) (f5 (f6 (f7 f8 (f26 ?v0 ?v2)) (f10 f11 (f12 ?v2))) (f26 ?v1 ?v2)))))
(assert (forall ((?v0 S15) (?v1 S15) (?v2 S2)) (= (f3 (f23 (f24 f27 ?v0) ?v1) ?v2) (f5 (f6 (f7 f8 (f26 ?v0 ?v2)) (f15 f16 ?v2)) (f26 ?v1 ?v2)))))
(assert (forall ((?v0 S13) (?v1 S13) (?v2 S4)) (= (= (f17 (f28 (f29 ?v0) ?v1) ?v2) f1) (or (= (f19 ?v2 ?v0) f1) (= (f19 ?v2 ?v1) f1)))))
(assert (forall ((?v0 S14) (?v1 S14) (?v2 S2)) (= (= (f20 (f30 (f31 ?v0) ?v1) ?v2) f1) (or (= (f22 ?v2 ?v0) f1) (= (f22 ?v2 ?v1) f1)))))
(assert (forall ((?v0 S4) (?v1 S13) (?v2 S4)) (= (= (f17 (f28 (f32 ?v0) ?v1) ?v2) f1) (or (= ?v2 ?v0) (= (f19 ?v2 ?v1) f1)))))
(assert (forall ((?v0 S2) (?v1 S14) (?v2 S2)) (= (= (f20 (f30 (f33 ?v0) ?v1) ?v2) f1) (or (= ?v2 ?v0) (= (f22 ?v2 ?v1) f1)))))
(assert (forall ((?v0 S4) (?v1 S13) (?v2 S4)) (= (= (f17 (f28 (f34 ?v0) ?v1) ?v2) f1) (=> (not (= ?v2 ?v0)) (= (f17 ?v1 ?v2) f1)))))
(assert (forall ((?v0 S2) (?v1 S14) (?v2 S2)) (= (= (f20 (f30 (f35 ?v0) ?v1) ?v2) f1) (=> (not (= ?v2 ?v0)) (= (f20 ?v1 ?v2) f1)))))
(assert (forall ((?v0 S20) (?v1 S3) (?v2 S2)) (= (f3 (f36 (f37 f38 ?v0) ?v1) ?v2) (f39 ?v0 (f3 ?v1 ?v2)))))
(assert (forall ((?v0 S23) (?v1 S3) (?v2 S2)) (= (f40 (f41 (f42 f43 ?v0) ?v1) ?v2) (f44 ?v0 (f3 ?v1 ?v2)))))
(assert (forall ((?v0 S3) (?v1 S23) (?v2 S4)) (= (f39 (f45 (f46 f47 ?v0) ?v1) ?v2) (f3 ?v0 (f44 ?v1 ?v2)))))
(assert (forall ((?v0 S3) (?v1 S24) (?v2 S2)) (= (f3 (f48 (f49 f50 ?v0) ?v1) ?v2) (f3 ?v0 (f40 ?v1 ?v2)))))
(assert (forall ((?v0 S4) (?v1 S4)) (= (f39 (f51 f52 ?v0) ?v1) ?v0)))
(assert (forall ((?v0 S4) (?v1 S2)) (= (f3 (f53 f54 ?v0) ?v1) ?v0)))
(assert (forall ((?v0 S2) (?v1 S4)) (= (f44 (f55 f56 ?v0) ?v1) ?v0)))
(assert (forall ((?v0 S2) (?v1 S2)) (= (f40 (f57 f58 ?v0) ?v1) ?v0)))
(assert (forall ((?v0 S4)) (= (f39 f59 ?v0) ?v0)))
(assert (forall ((?v0 S2)) (= (f40 f60 ?v0) ?v0)))
(assert (forall ((?v0 S4)) (= (= (f17 f61 ?v0) f1) false)))
(assert (forall ((?v0 S2)) (= (= (f20 f62 ?v0) f1) false)))
(assert (not (= (f63 f64 (f28 (f65 (f5 (f6 (f7 f8 (f9 f66)) (f15 f16 f66)) (f13 f66))) f67)) f1)))
(assert (= (f63 (f28 (f68 f64) (f69 (f70 f14) f71)) (f69 (f70 f4) f71)) f1))
(assert (= (f22 f66 f71) f1))
(assert (forall ((?v0 S13)) (= (f63 ?v0 f67) f1)))
(assert (forall ((?v0 S6) (?v1 S8) (?v2 S6) (?v3 S6) (?v4 S8) (?v5 S6)) (= (= (f5 (f6 (f7 f8 ?v0) ?v1) ?v2) (f5 (f6 (f7 f8 ?v3) ?v4) ?v5)) (and (= ?v0 ?v3) (and (= ?v1 ?v4) (= ?v2 ?v5))))))
(assert (forall ((?v0 S13) (?v1 S13) (?v2 S13)) (=> (= (f63 ?v0 ?v1) f1) (=> (= (f63 ?v2 ?v0) f1) (= (f63 ?v2 ?v1) f1)))))
(assert (forall ((?v0 S13) (?v1 S4) (?v2 S13)) (let ((?v_0 (f65 ?v1))) (=> (= (f63 ?v0 (f28 ?v_0 f67)) f1) (=> (= (f63 ?v0 ?v2) f1) (= (f63 ?v0 (f28 ?v_0 ?v2)) f1))))))
(assert (forall ((?v0 S13) (?v1 S15) (?v2 S15) (?v3 S14)) (let ((?v_0 (f69 (f70 (f23 (f24 f27 ?v1) ?v2)) ?v3))) (=> (= (f63 (f28 (f68 ?v0) ?v_0) (f69 (f70 (f23 (f24 f25 ?v1) ?v2)) ?v3)) f1) (= (f63 ?v0 ?v_0) f1)))))
(assert (forall ((?v0 S13) (?v1 S6) (?v2 S8) (?v3 S6) (?v4 S6)) (let ((?v_0 (f6 (f7 f8 ?v1) ?v2))) (=> (= (f63 ?v0 (f28 (f65 (f5 ?v_0 ?v3)) f67)) f1) (=> (forall ((?v5 S36) (?v6 S37)) (=> (= (f72 (f73 ?v3 ?v5) ?v6) f1) (= (f72 (f73 ?v4 ?v5) ?v6) f1))) (= (f63 ?v0 (f28 (f65 (f5 ?v_0 ?v4)) f67)) f1))))))
(assert (forall ((?v0 S13) (?v1 S6) (?v2 S8) (?v3 S6) (?v4 S6)) (=> (= (f63 ?v0 (f28 (f65 (f5 (f6 (f7 f8 ?v1) ?v2) ?v3)) f67)) f1) (=> (forall ((?v5 S36) (?v6 S37)) (=> (= (f72 (f73 ?v4 ?v5) ?v6) f1) (= (f72 (f73 ?v1 ?v5) ?v6) f1))) (= (f63 ?v0 (f28 (f65 (f5 (f6 (f7 f8 ?v4) ?v2) ?v3)) f67)) f1)))))
(assert (forall ((?v0 S4) (?v1 S14)) (= (f69 (f70 (f53 f54 ?v0)) ?v1) (ite (= ?v1 f74) f67 (f28 (f65 ?v0) f67)))))
(assert (forall ((?v0 S2) (?v1 S13)) (= (f75 (f76 (f55 f56 ?v0)) ?v1) (ite (= ?v1 f67) f74 (f30 (f77 ?v0) f74)))))
(assert (forall ((?v0 S2) (?v1 S14)) (= (f30 (f78 (f57 f58 ?v0)) ?v1) (ite (= ?v1 f74) f74 (f30 (f77 ?v0) f74)))))
(assert (forall ((?v0 S4) (?v1 S13)) (= (f28 (f79 (f51 f52 ?v0)) ?v1) (ite (= ?v1 f67) f67 (f28 (f65 ?v0) f67)))))
(assert (forall ((?v0 S2) (?v1 S14) (?v2 S4)) (=> (= (f22 ?v0 ?v1) f1) (= (f69 (f70 (f53 f54 ?v2)) ?v1) (f28 (f65 ?v2) f67)))))
(assert (forall ((?v0 S4) (?v1 S13) (?v2 S4)) (=> (= (f19 ?v0 ?v1) f1) (= (f28 (f79 (f51 f52 ?v2)) ?v1) (f28 (f65 ?v2) f67)))))
(assert (forall ((?v0 S2) (?v1 S14) (?v2 S2)) (=> (= (f22 ?v0 ?v1) f1) (= (f30 (f78 (f57 f58 ?v2)) ?v1) (f30 (f77 ?v2) f74)))))
(assert (forall ((?v0 S4) (?v1 S13) (?v2 S2)) (=> (= (f19 ?v0 ?v1) f1) (= (f75 (f76 (f55 f56 ?v2)) ?v1) (f30 (f77 ?v2) f74)))))
(assert (forall ((?v0 S4) (?v1 S13)) (let ((?v_0 (f65 ?v0))) (= (f28 ?v_0 ?v1) (f28 (f68 (f28 ?v_0 f67)) ?v1)))))
(assert (forall ((?v0 S2) (?v1 S14)) (let ((?v_0 (f77 ?v0))) (= (f30 ?v_0 ?v1) (f30 (f80 (f30 ?v_0 f74)) ?v1)))))
(assert (forall ((?v0 S13) (?v1 S6) (?v2 S8) (?v3 S6) (?v4 S6) (?v5 S6)) (=> (= (f63 ?v0 (f28 (f65 (f5 (f6 (f7 f8 ?v1) ?v2) ?v3)) f67)) f1) (=> (forall ((?v6 S36) (?v7 S37)) (=> (= (f72 (f73 ?v4 ?v6) ?v7) f1) (forall ((?v8 S37)) (=> (forall ((?v9 S36)) (=> (= (f72 (f73 ?v1 ?v9) ?v7) f1) (= (f72 (f73 ?v3 ?v9) ?v8) f1))) (= (f72 (f73 ?v5 ?v6) ?v8) f1))))) (= (f63 ?v0 (f28 (f65 (f5 (f6 (f7 f8 ?v4) ?v2) ?v5)) f67)) f1)))))
(assert (forall ((?v0 S40) (?v1 S6) (?v2 S2) (?v3 S6)) (let ((?v_0 (f7 f8 ?v1))) (= (= (f17 (f81 ?v0) (f5 (f6 ?v_0 (f10 f11 (f12 ?v2))) ?v3)) f1) (= (f17 (f81 (f82 f83 (+ (f84 f85 ?v0) 1))) (f5 (f6 ?v_0 (f15 f16 ?v2)) ?v3)) f1)))))
(assert (forall ((?v0 S2) (?v1 S14) (?v2 S14)) (=> (= (f22 ?v0 (f30 (f80 ?v1) ?v2)) f1) (=> (=> (= (f22 ?v0 ?v1) f1) false) (=> (=> (= (f22 ?v0 ?v2) f1) false) false)))))
(assert (forall ((?v0 S4) (?v1 S13) (?v2 S13)) (=> (= (f19 ?v0 (f28 (f68 ?v1) ?v2)) f1) (=> (=> (= (f19 ?v0 ?v1) f1) false) (=> (=> (= (f19 ?v0 ?v2) f1) false) false)))))
(assert (forall ((?v0 S13) (?v1 S13) (?v2 S4)) (=> (= (f17 (f28 (f68 ?v0) ?v1) ?v2) f1) (=> (=> (= (f17 ?v0 ?v2) f1) false) (=> (=> (= (f17 ?v1 ?v2) f1) false) false)))))
(assert (forall ((?v0 S14) (?v1 S14) (?v2 S2)) (=> (= (f20 (f30 (f80 ?v0) ?v1) ?v2) f1) (=> (=> (= (f20 ?v0 ?v2) f1) false) (=> (=> (= (f20 ?v1 ?v2) f1) false) false)))))
(assert (forall ((?v0 S13) (?v1 S4) (?v2 S13)) (=> (=> (not (= (f17 ?v0 ?v1) f1)) (= (f17 ?v2 ?v1) f1)) (= (f17 (f28 (f68 ?v2) ?v0) ?v1) f1))))
(assert (forall ((?v0 S14) (?v1 S2) (?v2 S14)) (=> (=> (not (= (f20 ?v0 ?v1) f1)) (= (f20 ?v2 ?v1) f1)) (= (f20 (f30 (f80 ?v2) ?v0) ?v1) f1))))
(assert (forall ((?v0 S2) (?v1 S14) (?v2 S14)) (=> (=> (not (= (f22 ?v0 ?v1) f1)) (= (f22 ?v0 ?v2) f1)) (= (f22 ?v0 (f30 (f80 ?v2) ?v1)) f1))))
(assert (forall ((?v0 S4) (?v1 S13) (?v2 S13)) (=> (=> (not (= (f19 ?v0 ?v1) f1)) (= (f19 ?v0 ?v2) f1)) (= (f19 ?v0 (f28 (f68 ?v2) ?v1)) f1))))
(assert (forall ((?v0 S4) (?v1 S3) (?v2 S2) (?v3 S14)) (=> (= ?v0 (f3 ?v1 ?v2)) (=> (= (f22 ?v2 ?v3) f1) (= (f19 ?v0 (f69 (f70 ?v1) ?v3)) f1)))))
(assert (forall ((?v0 S2) (?v1 S23) (?v2 S4) (?v3 S13)) (=> (= ?v0 (f44 ?v1 ?v2)) (=> (= (f19 ?v2 ?v3) f1) (= (f22 ?v0 (f75 (f76 ?v1) ?v3)) f1)))))
(assert (forall ((?v0 S2) (?v1 S24) (?v2 S2) (?v3 S14)) (=> (= ?v0 (f40 ?v1 ?v2)) (=> (= (f22 ?v2 ?v3) f1) (= (f22 ?v0 (f30 (f78 ?v1) ?v3)) f1)))))
(assert (forall ((?v0 S4) (?v1 S20) (?v2 S4) (?v3 S13)) (=> (= ?v0 (f39 ?v1 ?v2)) (=> (= (f19 ?v2 ?v3) f1) (= (f19 ?v0 (f28 (f79 ?v1) ?v3)) f1)))))
(assert (forall ((?v0 S2)) (=> (= (f22 ?v0 f74) f1) false)))
(assert (forall ((?v0 S4)) (=> (= (f19 ?v0 f67) f1) false)))
(assert (forall ((?v0 S4) (?v1 S13) (?v2 S4)) (=> (=> (not (= (f19 ?v0 ?v1) f1)) (= ?v0 ?v2)) (= (f19 ?v0 (f28 (f65 ?v2) ?v1)) f1))))
(assert (forall ((?v0 S2) (?v1 S14) (?v2 S2)) (=> (=> (not (= (f22 ?v0 ?v1) f1)) (= ?v0 ?v2)) (= (f22 ?v0 (f30 (f77 ?v2) ?v1)) f1))))
(assert (forall ((?v0 S4) (?v1 S4) (?v2 S13)) (=> (= (f19 ?v0 (f28 (f65 ?v1) ?v2)) f1) (=> (=> (= ?v0 ?v1) false) (=> (=> (= (f19 ?v0 ?v2) f1) false) false)))))
(assert (forall ((?v0 S2) (?v1 S2) (?v2 S14)) (=> (= (f22 ?v0 (f30 (f77 ?v1) ?v2)) f1) (=> (=> (= ?v0 ?v1) false) (=> (=> (= (f22 ?v0 ?v2) f1) false) false)))))
(assert (forall ((?v0 S40) (?v1 S4)) (=> (= (f17 (f81 (f82 f83 (+ (f84 f85 ?v0) 1))) ?v1) f1) (= (f17 (f81 ?v0) ?v1) f1))))
(assert (forall ((?v0 S13) (?v1 S40)) (=> (forall ((?v2 S4)) (=> (= (f19 ?v2 ?v0) f1) (= (f17 (f81 (f82 f83 (+ (f84 f85 ?v1) 1))) ?v2) f1))) (forall ((?v2 S4)) (=> (= (f19 ?v2 ?v0) f1) (= (f17 (f81 ?v1) ?v2) f1))))))
(assert (forall ((?v0 S14) (?v1 S2)) (=> (= ?v0 f74) (not (= (f22 ?v1 ?v0) f1)))))
(assert (forall ((?v0 S13) (?v1 S4)) (=> (= ?v0 f67) (not (= (f19 ?v1 ?v0) f1)))))
(assert (forall ((?v0 S13)) (= (= (f86 ?v0) f67) (forall ((?v1 S4)) (not (= (f17 ?v0 ?v1) f1))))))
(assert (forall ((?v0 S14)) (= (= (f87 ?v0) f74) (forall ((?v1 S2)) (not (= (f20 ?v0 ?v1) f1))))))
(assert (forall ((?v0 S2)) (= (= (f22 ?v0 f74) f1) false)))
(assert (forall ((?v0 S4)) (= (= (f19 ?v0 f67) f1) false)))
(assert (forall ((?v0 S13)) (= (= f67 (f86 ?v0)) (forall ((?v1 S4)) (not (= (f17 ?v0 ?v1) f1))))))
(assert (forall ((?v0 S14)) (= (= f74 (f87 ?v0)) (forall ((?v1 S2)) (not (= (f20 ?v0 ?v1) f1))))))
(assert (forall ((?v0 S14)) (= (forall ((?v1 S2)) (=> (= (f22 ?v1 f74) f1) (= (f20 ?v0 ?v1) f1))) true)))
(assert (forall ((?v0 S13)) (= (forall ((?v1 S4)) (=> (= (f19 ?v1 f67) f1) (= (f17 ?v0 ?v1) f1))) true)))
(assert (forall ((?v0 S14)) (= (exists ((?v1 S2)) (and (= (f22 ?v1 f74) f1) (= (f20 ?v0 ?v1) f1))) false)))
(assert (forall ((?v0 S13)) (= (exists ((?v1 S4)) (and (= (f19 ?v1 f67) f1) (= (f17 ?v0 ?v1) f1))) false)))
(assert (forall ((?v0 S14)) (= (exists ((?v1 S2)) (= (f22 ?v1 ?v0) f1)) (not (= ?v0 f74)))))
(assert (forall ((?v0 S13)) (= (exists ((?v1 S4)) (= (f19 ?v1 ?v0) f1)) (not (= ?v0 f67)))))
(assert (forall ((?v0 S14)) (= (forall ((?v1 S2)) (not (= (f22 ?v1 ?v0) f1))) (= ?v0 f74))))
(assert (forall ((?v0 S13)) (= (forall ((?v1 S4)) (not (= (f19 ?v1 ?v0) f1))) (= ?v0 f67))))
(assert (= f67 (f86 f61)))
(assert (= f74 (f87 f62)))
(assert (forall ((?v0 S2)) (= (= (f20 f74 ?v0) f1) (= (f22 ?v0 f74) f1))))
(assert (forall ((?v0 S4)) (= (= (f17 f67 ?v0) f1) (= (f19 ?v0 f67) f1))))
(assert (forall ((?v0 S4) (?v1 S13)) (=> (= (f19 ?v0 ?v1) f1) (= (f28 (f65 ?v0) ?v1) ?v1))))
(assert (forall ((?v0 S2) (?v1 S14)) (=> (= (f22 ?v0 ?v1) f1) (= (f30 (f77 ?v0) ?v1) ?v1))))
(assert (forall ((?v0 S4) (?v1 S13) (?v2 S4)) (=> (= (f19 ?v0 ?v1) f1) (= (f19 ?v0 (f28 (f65 ?v2) ?v1)) f1))))
(assert (forall ((?v0 S2) (?v1 S14) (?v2 S2)) (=> (= (f22 ?v0 ?v1) f1) (= (f22 ?v0 (f30 (f77 ?v2) ?v1)) f1))))
(assert (forall ((?v0 S4) (?v1 S13) (?v2 S13)) (let ((?v_0 (f65 ?v0))) (=> (not (= (f19 ?v0 ?v1) f1)) (=> (not (= (f19 ?v0 ?v2) f1)) (= (= (f28 ?v_0 ?v1) (f28 ?v_0 ?v2)) (= ?v1 ?v2)))))))
(assert (forall ((?v0 S2) (?v1 S14) (?v2 S14)) (let ((?v_0 (f77 ?v0))) (=> (not (= (f22 ?v0 ?v1) f1)) (=> (not (= (f22 ?v0 ?v2) f1)) (= (= (f30 ?v_0 ?v1) (f30 ?v_0 ?v2)) (= ?v1 ?v2)))))))
(assert (forall ((?v0 S4) (?v1 S13) (?v2 S4)) (= (= (f17 (f28 (f65 ?v0) ?v1) ?v2) f1) (or (= ?v0 ?v2) (= (f17 ?v1 ?v2) f1)))))
(assert (forall ((?v0 S2) (?v1 S14) (?v2 S2)) (= (= (f20 (f30 (f77 ?v0) ?v1) ?v2) f1) (or (= ?v0 ?v2) (= (f20 ?v1 ?v2) f1)))))
(assert (forall ((?v0 S4) (?v1 S4) (?v2 S13)) (= (= (f19 ?v0 (f28 (f65 ?v1) ?v2)) f1) (or (= ?v0 ?v1) (= (f19 ?v0 ?v2) f1)))))
(assert (forall ((?v0 S2) (?v1 S2) (?v2 S14)) (= (= (f22 ?v0 (f30 (f77 ?v1) ?v2)) f1) (or (= ?v0 ?v1) (= (f22 ?v0 ?v2) f1)))))
(assert (forall ((?v0 S4) (?v1 S4) (?v2 S13)) (let ((?v_1 (f65 ?v0)) (?v_0 (f65 ?v1))) (= (f28 ?v_1 (f28 ?v_0 ?v2)) (f28 ?v_0 (f28 ?v_1 ?v2))))))
(assert (forall ((?v0 S2) (?v1 S2) (?v2 S14)) (let ((?v_1 (f77 ?v0)) (?v_0 (f77 ?v1))) (= (f30 ?v_1 (f30 ?v_0 ?v2)) (f30 ?v_0 (f30 ?v_1 ?v2))))))
(assert (forall ((?v0 S4) (?v1 S13)) (let ((?v_0 (f65 ?v0))) (let ((?v_1 (f28 ?v_0 ?v1))) (= (f28 ?v_0 ?v_1) ?v_1)))))
(assert (forall ((?v0 S2) (?v1 S14)) (let ((?v_0 (f77 ?v0))) (let ((?v_1 (f30 ?v_0 ?v1))) (= (f30 ?v_0 ?v_1) ?v_1)))))
(assert (forall ((?v0 S4) (?v1 S13)) (= (f28 (f65 ?v0) (f86 ?v1)) (f86 (f28 (f34 ?v0) ?v1)))))
(assert (forall ((?v0 S2) (?v1 S14)) (= (f30 (f77 ?v0) (f87 ?v1)) (f87 (f30 (f35 ?v0) ?v1)))))
(assert (forall ((?v0 S4) (?v1 S13)) (= (f28 (f65 ?v0) ?v1) (f86 (f28 (f32 ?v0) ?v1)))))
(assert (forall ((?v0 S2) (?v1 S14)) (= (f30 (f77 ?v0) ?v1) (f87 (f30 (f33 ?v0) ?v1)))))
(assert (forall ((?v0 S4) (?v1 S13)) (= (f19 ?v0 (f28 (f65 ?v0) ?v1)) f1)))
(assert (forall ((?v0 S2) (?v1 S14)) (= (f22 ?v0 (f30 (f77 ?v0) ?v1)) f1)))
(assert (forall ((?v0 S2) (?v1 S14) (?v2 S4) (?v3 S3)) (=> (= (f22 ?v0 ?v1) f1) (=> (= ?v2 (f3 ?v3 ?v0)) (= (f19 ?v2 (f69 (f70 ?v3) ?v1)) f1)))))
(assert (forall ((?v0 S4) (?v1 S13) (?v2 S2) (?v3 S23)) (=> (= (f19 ?v0 ?v1) f1) (=> (= ?v2 (f44 ?v3 ?v0)) (= (f22 ?v2 (f75 (f76 ?v3) ?v1)) f1)))))
(assert (forall ((?v0 S2) (?v1 S14) (?v2 S2) (?v3 S24)) (=> (= (f22 ?v0 ?v1) f1) (=> (= ?v2 (f40 ?v3 ?v0)) (= (f22 ?v2 (f30 (f78 ?v3) ?v1)) f1)))))
(assert (forall ((?v0 S4) (?v1 S13) (?v2 S4) (?v3 S20)) (=> (= (f19 ?v0 ?v1) f1) (=> (= ?v2 (f39 ?v3 ?v0)) (= (f19 ?v2 (f28 (f79 ?v3) ?v1)) f1)))))
(assert (forall ((?v0 S2) (?v1 S14) (?v2 S3)) (=> (= (f22 ?v0 ?v1) f1) (= (f19 (f3 ?v2 ?v0) (f69 (f70 ?v2) ?v1)) f1))))
(assert (forall ((?v0 S4) (?v1 S13) (?v2 S23)) (=> (= (f19 ?v0 ?v1) f1) (= (f22 (f44 ?v2 ?v0) (f75 (f76 ?v2) ?v1)) f1))))
(assert (forall ((?v0 S2) (?v1 S14) (?v2 S24)) (=> (= (f22 ?v0 ?v1) f1) (= (f22 (f40 ?v2 ?v0) (f30 (f78 ?v2) ?v1)) f1))))
(assert (forall ((?v0 S4) (?v1 S13) (?v2 S20)) (=> (= (f19 ?v0 ?v1) f1) (= (f19 (f39 ?v2 ?v0) (f28 (f79 ?v2) ?v1)) f1))))
(assert (forall ((?v0 S4) (?v1 S3) (?v2 S14)) (= (= (f19 ?v0 (f69 (f70 ?v1) ?v2)) f1) (exists ((?v3 S2)) (and (= (f22 ?v3 ?v2) f1) (= ?v0 (f3 ?v1 ?v3)))))))
(assert (forall ((?v0 S2) (?v1 S23) (?v2 S13)) (= (= (f22 ?v0 (f75 (f76 ?v1) ?v2)) f1) (exists ((?v3 S4)) (and (= (f19 ?v3 ?v2) f1) (= ?v0 (f44 ?v1 ?v3)))))))
(assert (forall ((?v0 S2) (?v1 S24) (?v2 S14)) (= (= (f22 ?v0 (f30 (f78 ?v1) ?v2)) f1) (exists ((?v3 S2)) (and (= (f22 ?v3 ?v2) f1) (= ?v0 (f40 ?v1 ?v3)))))))
(assert (forall ((?v0 S4) (?v1 S20) (?v2 S13)) (= (= (f19 ?v0 (f28 (f79 ?v1) ?v2)) f1) (exists ((?v3 S4)) (and (= (f19 ?v3 ?v2) f1) (= ?v0 (f39 ?v1 ?v3)))))))
(assert (forall ((?v0 S2) (?v1 S14) (?v2 S14)) (=> (= (f22 ?v0 ?v1) f1) (= (f22 ?v0 (f30 (f80 ?v2) ?v1)) f1))))
(assert (forall ((?v0 S4) (?v1 S13) (?v2 S13)) (=> (= (f19 ?v0 ?v1) f1) (= (f19 ?v0 (f28 (f68 ?v2) ?v1)) f1))))
(assert (forall ((?v0 S2) (?v1 S14) (?v2 S14)) (=> (= (f22 ?v0 ?v1) f1) (= (f22 ?v0 (f30 (f80 ?v1) ?v2)) f1))))
(assert (forall ((?v0 S4) (?v1 S13) (?v2 S13)) (=> (= (f19 ?v0 ?v1) f1) (= (f19 ?v0 (f28 (f68 ?v1) ?v2)) f1))))
(assert (forall ((?v0 S13) (?v1 S4) (?v2 S13)) (=> (= (f17 ?v0 ?v1) f1) (= (f17 (f28 (f68 ?v2) ?v0) ?v1) f1))))
(assert (forall ((?v0 S14) (?v1 S2) (?v2 S14)) (=> (= (f20 ?v0 ?v1) f1) (= (f20 (f30 (f80 ?v2) ?v0) ?v1) f1))))
(assert (forall ((?v0 S13) (?v1 S4) (?v2 S13)) (=> (= (f17 ?v0 ?v1) f1) (= (f17 (f28 (f68 ?v0) ?v2) ?v1) f1))))
(assert (forall ((?v0 S14) (?v1 S2) (?v2 S14)) (=> (= (f20 ?v0 ?v1) f1) (= (f20 (f30 (f80 ?v0) ?v2) ?v1) f1))))
(assert (forall ((?v0 S14) (?v1 S14) (?v2 S14)) (= (forall ((?v3 S2)) (=> (= (f22 ?v3 (f30 (f80 ?v0) ?v1)) f1) (= (f20 ?v2 ?v3) f1))) (and (forall ((?v3 S2)) (=> (= (f22 ?v3 ?v0) f1) (= (f20 ?v2 ?v3) f1))) (forall ((?v3 S2)) (=> (= (f22 ?v3 ?v1) f1) (= (f20 ?v2 ?v3) f1)))))))
(assert (forall ((?v0 S13) (?v1 S13) (?v2 S13)) (= (forall ((?v3 S4)) (=> (= (f19 ?v3 (f28 (f68 ?v0) ?v1)) f1) (= (f17 ?v2 ?v3) f1))) (and (forall ((?v3 S4)) (=> (= (f19 ?v3 ?v0) f1) (= (f17 ?v2 ?v3) f1))) (forall ((?v3 S4)) (=> (= (f19 ?v3 ?v1) f1) (= (f17 ?v2 ?v3) f1)))))))
(assert (forall ((?v0 S14) (?v1 S14) (?v2 S14)) (= (exists ((?v3 S2)) (and (= (f22 ?v3 (f30 (f80 ?v0) ?v1)) f1) (= (f20 ?v2 ?v3) f1))) (or (exists ((?v3 S2)) (and (= (f22 ?v3 ?v0) f1) (= (f20 ?v2 ?v3) f1))) (exists ((?v3 S2)) (and (= (f22 ?v3 ?v1) f1) (= (f20 ?v2 ?v3) f1)))))))
(assert (forall ((?v0 S13) (?v1 S13) (?v2 S13)) (= (exists ((?v3 S4)) (and (= (f19 ?v3 (f28 (f68 ?v0) ?v1)) f1) (= (f17 ?v2 ?v3) f1))) (or (exists ((?v3 S4)) (and (= (f19 ?v3 ?v0) f1) (= (f17 ?v2 ?v3) f1))) (exists ((?v3 S4)) (and (= (f19 ?v3 ?v1) f1) (= (f17 ?v2 ?v3) f1)))))))
(assert (forall ((?v0 S13) (?v1 S13) (?v2 S13)) (let ((?v_0 (f68 ?v0))) (= (f28 (f68 (f28 ?v_0 ?v1)) ?v2) (f28 ?v_0 (f28 (f68 ?v1) ?v2))))))
(assert (forall ((?v0 S14) (?v1 S14) (?v2 S14)) (let ((?v_0 (f80 ?v0))) (= (f30 (f80 (f30 ?v_0 ?v1)) ?v2) (f30 ?v_0 (f30 (f80 ?v1) ?v2))))))
(assert (forall ((?v0 S2) (?v1 S14) (?v2 S14)) (= (= (f22 ?v0 (f30 (f80 ?v1) ?v2)) f1) (or (= (f22 ?v0 ?v1) f1) (= (f22 ?v0 ?v2) f1)))))
(assert (forall ((?v0 S4) (?v1 S13) (?v2 S13)) (= (= (f19 ?v0 (f28 (f68 ?v1) ?v2)) f1) (or (= (f19 ?v0 ?v1) f1) (= (f19 ?v0 ?v2) f1)))))
(assert (forall ((?v0 S13) (?v1 S13) (?v2 S13)) (let ((?v_1 (f68 ?v0)) (?v_0 (f68 ?v1))) (= (f28 ?v_1 (f28 ?v_0 ?v2)) (f28 ?v_0 (f28 ?v_1 ?v2))))))
(assert (forall ((?v0 S14) (?v1 S14) (?v2 S14)) (let ((?v_1 (f80 ?v0)) (?v_0 (f80 ?v1))) (= (f30 ?v_1 (f30 ?v_0 ?v2)) (f30 ?v_0 (f30 ?v_1 ?v2))))))
(assert (forall ((?v0 S13) (?v1 S13)) (let ((?v_0 (f68 ?v0))) (let ((?v_1 (f28 ?v_0 ?v1))) (= (f28 ?v_0 ?v_1) ?v_1)))))
(assert (forall ((?v0 S14) (?v1 S14)) (let ((?v_0 (f80 ?v0))) (let ((?v_1 (f30 ?v_0 ?v1))) (= (f30 ?v_0 ?v_1) ?v_1)))))
(assert (forall ((?v0 S13) (?v1 S13)) (= (f28 (f68 ?v0) ?v1) (f28 (f68 ?v1) ?v0))))
(assert (forall ((?v0 S14) (?v1 S14)) (= (f30 (f80 ?v0) ?v1) (f30 (f80 ?v1) ?v0))))
(assert (forall ((?v0 S14) (?v1 S14)) (= (f30 (f80 ?v0) ?v1) (f87 (f30 (f31 ?v0) ?v1)))))
(assert (forall ((?v0 S13) (?v1 S13)) (= (f28 (f68 ?v0) ?v1) (f86 (f28 (f29 ?v0) ?v1)))))
(assert (forall ((?v0 S13)) (= (f28 (f68 ?v0) ?v0) ?v0)))
(assert (forall ((?v0 S14)) (= (f30 (f80 ?v0) ?v0) ?v0)))
(assert (forall ((?v0 S6) (?v1 S2) (?v2 S6)) (= (f17 (f81 (f82 f83 0)) (f5 (f6 (f7 f8 ?v0) (f15 f16 ?v1)) ?v2)) f1)))
(assert (forall ((?v0 S4) (?v1 S13)) (= (f28 (f65 ?v0) ?v1) (f86 (f28 (f32 ?v0) ?v1)))))
(assert (forall ((?v0 S2) (?v1 S14)) (= (f30 (f77 ?v0) ?v1) (f87 (f30 (f33 ?v0) ?v1)))))
(assert (forall ((?v0 S14)) (= (f30 (f78 f60) ?v0) ?v0)))
(assert (forall ((?v0 S13)) (= (f28 (f79 f59) ?v0) ?v0)))
(assert (forall ((?v0 S23) (?v1 S3) (?v2 S14)) (= (f75 (f76 ?v0) (f69 (f70 ?v1) ?v2)) (f30 (f78 (f41 (f42 f43 ?v0) ?v1)) ?v2))))
(assert (forall ((?v0 S20) (?v1 S3) (?v2 S14)) (= (f28 (f79 ?v0) (f69 (f70 ?v1) ?v2)) (f69 (f70 (f36 (f37 f38 ?v0) ?v1)) ?v2))))
(assert (forall ((?v0 S3) (?v1 S23) (?v2 S13)) (= (f69 (f70 ?v0) (f75 (f76 ?v1) ?v2)) (f28 (f79 (f45 (f46 f47 ?v0) ?v1)) ?v2))))
(assert (forall ((?v0 S3) (?v1 S24) (?v2 S14)) (= (f69 (f70 ?v0) (f30 (f78 ?v1) ?v2)) (f69 (f70 (f48 (f49 f50 ?v0) ?v1)) ?v2))))
(assert (forall ((?v0 S14) (?v1 S14) (?v2 S2)) (= (= (f20 (f30 (f80 (f21 ?v0)) (f21 ?v1)) ?v2) f1) (= (f22 ?v2 (f30 (f80 ?v0) ?v1)) f1))))
(assert (forall ((?v0 S13) (?v1 S13) (?v2 S4)) (= (= (f17 (f28 (f68 (f18 ?v0)) (f18 ?v1)) ?v2) f1) (= (f19 ?v2 (f28 (f68 ?v0) ?v1)) f1))))
(assert (forall ((?v0 S40)) (= (f82 f83 (f84 f85 ?v0)) ?v0)))
(assert (forall ((?v0 Int)) (=> (<= 0 ?v0) (= (f84 f85 (f82 f83 ?v0)) ?v0))))
(assert (forall ((?v0 Int)) (=> (< ?v0 0) (= (f84 f85 (f82 f83 ?v0)) 0))))
(check-sat)
(exit)
